exercise-05/lfsr_equiv/model/design_smt2.smt2
; SMT-LIBv2 description generated by Yosys 0.18 (git sha1 19ce3b45d6, gcc 11.3.0 -fPIC -Os)
; yosys-smt2-module $paramod$1e8fd2014180d3b081200268dddacd58cbfd5991/lfsr_gal
(declare-sort |$paramod$1e8fd2014180d3b081200268dddacd58cbfd5991/lfsr_gal_s| 0)
(declare-fun |$paramod$1e8fd2014180d3b081200268dddacd58cbfd5991/lfsr_gal_is| (|$paramod$1e8fd2014180d3b081200268dddacd58cbfd5991/lfsr_gal_s|) Bool)
(declare-fun |$paramod$1e8fd2014180d3b081200268dddacd58cbfd5991/lfsr_gal#0| (|$paramod$1e8fd2014180d3b081200268dddacd58cbfd5991/lfsr_gal_s|) (_ BitVec 8)) ; \sreg
; yosys-smt2-register sreg 8
; yosys-smt2-wire sreg 8
(define-fun |$paramod$1e8fd2014180d3b081200268dddacd58cbfd5991/lfsr_gal_n sreg| ((state |$paramod$1e8fd2014180d3b081200268dddacd58cbfd5991/lfsr_gal_s|)) (_ BitVec 8) (|$paramod$1e8fd2014180d3b081200268dddacd58cbfd5991/lfsr_gal#0| state))
; yosys-smt2-output o_bit 1
; yosys-smt2-wire o_bit 1
(define-fun |$paramod$1e8fd2014180d3b081200268dddacd58cbfd5991/lfsr_gal_n o_bit| ((state |$paramod$1e8fd2014180d3b081200268dddacd58cbfd5991/lfsr_gal_s|)) Bool (= ((_ extract 0 0) (|$paramod$1e8fd2014180d3b081200268dddacd58cbfd5991/lfsr_gal#0| state)) #b1))
(declare-fun |$paramod$1e8fd2014180d3b081200268dddacd58cbfd5991/lfsr_gal#1| (|$paramod$1e8fd2014180d3b081200268dddacd58cbfd5991/lfsr_gal_s|) Bool) ; \i_reset
; yosys-smt2-input i_reset 1
; yosys-smt2-wire i_reset 1
(define-fun |$paramod$1e8fd2014180d3b081200268dddacd58cbfd5991/lfsr_gal_n i_reset| ((state |$paramod$1e8fd2014180d3b081200268dddacd58cbfd5991/lfsr_gal_s|)) Bool (|$paramod$1e8fd2014180d3b081200268dddacd58cbfd5991/lfsr_gal#1| state))
(declare-fun |$paramod$1e8fd2014180d3b081200268dddacd58cbfd5991/lfsr_gal#2| (|$paramod$1e8fd2014180d3b081200268dddacd58cbfd5991/lfsr_gal_s|) Bool) ; \i_in
; yosys-smt2-input i_in 1
; yosys-smt2-wire i_in 1
(define-fun |$paramod$1e8fd2014180d3b081200268dddacd58cbfd5991/lfsr_gal_n i_in| ((state |$paramod$1e8fd2014180d3b081200268dddacd58cbfd5991/lfsr_gal_s|)) Bool (|$paramod$1e8fd2014180d3b081200268dddacd58cbfd5991/lfsr_gal#2| state))
(declare-fun |$paramod$1e8fd2014180d3b081200268dddacd58cbfd5991/lfsr_gal#3| (|$paramod$1e8fd2014180d3b081200268dddacd58cbfd5991/lfsr_gal_s|) Bool) ; \i_clk
; yosys-smt2-input i_clk 1
; yosys-smt2-wire i_clk 1
; yosys-smt2-clock i_clk posedge
(define-fun |$paramod$1e8fd2014180d3b081200268dddacd58cbfd5991/lfsr_gal_n i_clk| ((state |$paramod$1e8fd2014180d3b081200268dddacd58cbfd5991/lfsr_gal_s|)) Bool (|$paramod$1e8fd2014180d3b081200268dddacd58cbfd5991/lfsr_gal#3| state))
(declare-fun |$paramod$1e8fd2014180d3b081200268dddacd58cbfd5991/lfsr_gal#4| (|$paramod$1e8fd2014180d3b081200268dddacd58cbfd5991/lfsr_gal_s|) Bool) ; \i_ce
; yosys-smt2-input i_ce 1
; yosys-smt2-wire i_ce 1
(define-fun |$paramod$1e8fd2014180d3b081200268dddacd58cbfd5991/lfsr_gal_n i_ce| ((state |$paramod$1e8fd2014180d3b081200268dddacd58cbfd5991/lfsr_gal_s|)) Bool (|$paramod$1e8fd2014180d3b081200268dddacd58cbfd5991/lfsr_gal#4| state))
(define-fun |$paramod$1e8fd2014180d3b081200268dddacd58cbfd5991/lfsr_gal#5| ((state |$paramod$1e8fd2014180d3b081200268dddacd58cbfd5991/lfsr_gal_s|)) (_ BitVec 8) (bvxor (concat (ite (|$paramod$1e8fd2014180d3b081200268dddacd58cbfd5991/lfsr_gal#2| state) #b1 #b0) ((_ extract 7 1) (|$paramod$1e8fd2014180d3b081200268dddacd58cbfd5991/lfsr_gal#0| state))) #b10110100)) ; $xor$lfsr_gal.v:62$17_Y
(define-fun |$paramod$1e8fd2014180d3b081200268dddacd58cbfd5991/lfsr_gal#6| ((state |$paramod$1e8fd2014180d3b081200268dddacd58cbfd5991/lfsr_gal_s|)) (_ BitVec 8) (ite (= ((_ extract 0 0) (|$paramod$1e8fd2014180d3b081200268dddacd58cbfd5991/lfsr_gal#0| state)) #b1) (|$paramod$1e8fd2014180d3b081200268dddacd58cbfd5991/lfsr_gal#5| state) (concat (ite (|$paramod$1e8fd2014180d3b081200268dddacd58cbfd5991/lfsr_gal#2| state) #b1 #b0) ((_ extract 7 1) (|$paramod$1e8fd2014180d3b081200268dddacd58cbfd5991/lfsr_gal#0| state))))) ; $procmux$35_Y
(define-fun |$paramod$1e8fd2014180d3b081200268dddacd58cbfd5991/lfsr_gal#7| ((state |$paramod$1e8fd2014180d3b081200268dddacd58cbfd5991/lfsr_gal_s|)) (_ BitVec 8) (ite (|$paramod$1e8fd2014180d3b081200268dddacd58cbfd5991/lfsr_gal#4| state) (|$paramod$1e8fd2014180d3b081200268dddacd58cbfd5991/lfsr_gal#6| state) (|$paramod$1e8fd2014180d3b081200268dddacd58cbfd5991/lfsr_gal#0| state))) ; $auto$rtlil.cc:2456:Mux$51
(define-fun |$paramod$1e8fd2014180d3b081200268dddacd58cbfd5991/lfsr_gal#8| ((state |$paramod$1e8fd2014180d3b081200268dddacd58cbfd5991/lfsr_gal_s|)) (_ BitVec 8) (ite (|$paramod$1e8fd2014180d3b081200268dddacd58cbfd5991/lfsr_gal#1| state) #b10000000 (|$paramod$1e8fd2014180d3b081200268dddacd58cbfd5991/lfsr_gal#7| state))) ; $auto$rtlil.cc:2456:Mux$53
(define-fun |$paramod$1e8fd2014180d3b081200268dddacd58cbfd5991/lfsr_gal_a| ((state |$paramod$1e8fd2014180d3b081200268dddacd58cbfd5991/lfsr_gal_s|)) Bool true)
(define-fun |$paramod$1e8fd2014180d3b081200268dddacd58cbfd5991/lfsr_gal_u| ((state |$paramod$1e8fd2014180d3b081200268dddacd58cbfd5991/lfsr_gal_s|)) Bool true)
(define-fun |$paramod$1e8fd2014180d3b081200268dddacd58cbfd5991/lfsr_gal_i| ((state |$paramod$1e8fd2014180d3b081200268dddacd58cbfd5991/lfsr_gal_s|)) Bool 
  (= (|$paramod$1e8fd2014180d3b081200268dddacd58cbfd5991/lfsr_gal#0| state) #b10000000) ; sreg
)
(define-fun |$paramod$1e8fd2014180d3b081200268dddacd58cbfd5991/lfsr_gal_h| ((state |$paramod$1e8fd2014180d3b081200268dddacd58cbfd5991/lfsr_gal_s|)) Bool true)
(define-fun |$paramod$1e8fd2014180d3b081200268dddacd58cbfd5991/lfsr_gal_t| ((state |$paramod$1e8fd2014180d3b081200268dddacd58cbfd5991/lfsr_gal_s|) (next_state |$paramod$1e8fd2014180d3b081200268dddacd58cbfd5991/lfsr_gal_s|)) Bool 
  (= (|$paramod$1e8fd2014180d3b081200268dddacd58cbfd5991/lfsr_gal#8| state) (|$paramod$1e8fd2014180d3b081200268dddacd58cbfd5991/lfsr_gal#0| next_state)) ; $auto$ff.cc:262:slice$49 \sreg
) ; end of module $paramod$1e8fd2014180d3b081200268dddacd58cbfd5991/lfsr_gal
; yosys-smt2-module $paramod$0aa70b75fd473bce0fdae03125c557661dcddb54/lfsr_fib
(declare-sort |$paramod$0aa70b75fd473bce0fdae03125c557661dcddb54/lfsr_fib_s| 0)
(declare-fun |$paramod$0aa70b75fd473bce0fdae03125c557661dcddb54/lfsr_fib_is| (|$paramod$0aa70b75fd473bce0fdae03125c557661dcddb54/lfsr_fib_s|) Bool)
(declare-fun |$paramod$0aa70b75fd473bce0fdae03125c557661dcddb54/lfsr_fib#0| (|$paramod$0aa70b75fd473bce0fdae03125c557661dcddb54/lfsr_fib_s|) (_ BitVec 8)) ; \sreg
; yosys-smt2-register sreg 8
; yosys-smt2-wire sreg 8
(define-fun |$paramod$0aa70b75fd473bce0fdae03125c557661dcddb54/lfsr_fib_n sreg| ((state |$paramod$0aa70b75fd473bce0fdae03125c557661dcddb54/lfsr_fib_s|)) (_ BitVec 8) (|$paramod$0aa70b75fd473bce0fdae03125c557661dcddb54/lfsr_fib#0| state))
; yosys-smt2-output o_bit 1
; yosys-smt2-wire o_bit 1
(define-fun |$paramod$0aa70b75fd473bce0fdae03125c557661dcddb54/lfsr_fib_n o_bit| ((state |$paramod$0aa70b75fd473bce0fdae03125c557661dcddb54/lfsr_fib_s|)) Bool (= ((_ extract 0 0) (|$paramod$0aa70b75fd473bce0fdae03125c557661dcddb54/lfsr_fib#0| state)) #b1))
(declare-fun |$paramod$0aa70b75fd473bce0fdae03125c557661dcddb54/lfsr_fib#1| (|$paramod$0aa70b75fd473bce0fdae03125c557661dcddb54/lfsr_fib_s|) Bool) ; \i_reset
; yosys-smt2-input i_reset 1
; yosys-smt2-wire i_reset 1
(define-fun |$paramod$0aa70b75fd473bce0fdae03125c557661dcddb54/lfsr_fib_n i_reset| ((state |$paramod$0aa70b75fd473bce0fdae03125c557661dcddb54/lfsr_fib_s|)) Bool (|$paramod$0aa70b75fd473bce0fdae03125c557661dcddb54/lfsr_fib#1| state))
(declare-fun |$paramod$0aa70b75fd473bce0fdae03125c557661dcddb54/lfsr_fib#2| (|$paramod$0aa70b75fd473bce0fdae03125c557661dcddb54/lfsr_fib_s|) Bool) ; \i_in
; yosys-smt2-input i_in 1
; yosys-smt2-wire i_in 1
(define-fun |$paramod$0aa70b75fd473bce0fdae03125c557661dcddb54/lfsr_fib_n i_in| ((state |$paramod$0aa70b75fd473bce0fdae03125c557661dcddb54/lfsr_fib_s|)) Bool (|$paramod$0aa70b75fd473bce0fdae03125c557661dcddb54/lfsr_fib#2| state))
(declare-fun |$paramod$0aa70b75fd473bce0fdae03125c557661dcddb54/lfsr_fib#3| (|$paramod$0aa70b75fd473bce0fdae03125c557661dcddb54/lfsr_fib_s|) Bool) ; \i_clk
; yosys-smt2-input i_clk 1
; yosys-smt2-wire i_clk 1
; yosys-smt2-clock i_clk posedge
(define-fun |$paramod$0aa70b75fd473bce0fdae03125c557661dcddb54/lfsr_fib_n i_clk| ((state |$paramod$0aa70b75fd473bce0fdae03125c557661dcddb54/lfsr_fib_s|)) Bool (|$paramod$0aa70b75fd473bce0fdae03125c557661dcddb54/lfsr_fib#3| state))
(declare-fun |$paramod$0aa70b75fd473bce0fdae03125c557661dcddb54/lfsr_fib#4| (|$paramod$0aa70b75fd473bce0fdae03125c557661dcddb54/lfsr_fib_s|) Bool) ; \i_ce
; yosys-smt2-input i_ce 1
; yosys-smt2-wire i_ce 1
(define-fun |$paramod$0aa70b75fd473bce0fdae03125c557661dcddb54/lfsr_fib_n i_ce| ((state |$paramod$0aa70b75fd473bce0fdae03125c557661dcddb54/lfsr_fib_s|)) Bool (|$paramod$0aa70b75fd473bce0fdae03125c557661dcddb54/lfsr_fib#4| state))
(define-fun |$paramod$0aa70b75fd473bce0fdae03125c557661dcddb54/lfsr_fib#5| ((state |$paramod$0aa70b75fd473bce0fdae03125c557661dcddb54/lfsr_fib_s|)) (_ BitVec 8) (bvand (|$paramod$0aa70b75fd473bce0fdae03125c557661dcddb54/lfsr_fib#0| state) #b00101101)) ; $and$lfsr_fib.v:77$20_Y
(define-fun |$paramod$0aa70b75fd473bce0fdae03125c557661dcddb54/lfsr_fib#6| ((state |$paramod$0aa70b75fd473bce0fdae03125c557661dcddb54/lfsr_fib_s|)) Bool (xor  (= ((_ extract 0 0) (|$paramod$0aa70b75fd473bce0fdae03125c557661dcddb54/lfsr_fib#5| state)) #b1) (= ((_ extract 1 1) (|$paramod$0aa70b75fd473bce0fdae03125c557661dcddb54/lfsr_fib#5| state)) #b1) (= ((_ extract 2 2) (|$paramod$0aa70b75fd473bce0fdae03125c557661dcddb54/lfsr_fib#5| state)) #b1) (= ((_ extract 3 3) (|$paramod$0aa70b75fd473bce0fdae03125c557661dcddb54/lfsr_fib#5| state)) #b1) (= ((_ extract 4 4) (|$paramod$0aa70b75fd473bce0fdae03125c557661dcddb54/lfsr_fib#5| state)) #b1) (= ((_ extract 5 5) (|$paramod$0aa70b75fd473bce0fdae03125c557661dcddb54/lfsr_fib#5| state)) #b1) (= ((_ extract 6 6) (|$paramod$0aa70b75fd473bce0fdae03125c557661dcddb54/lfsr_fib#5| state)) #b1) (= ((_ extract 7 7) (|$paramod$0aa70b75fd473bce0fdae03125c557661dcddb54/lfsr_fib#5| state)) #b1))) ; $reduce_xor$lfsr_fib.v:77$21_Y
(define-fun |$paramod$0aa70b75fd473bce0fdae03125c557661dcddb54/lfsr_fib#7| ((state |$paramod$0aa70b75fd473bce0fdae03125c557661dcddb54/lfsr_fib_s|)) (_ BitVec 1) (bvxor (ite (|$paramod$0aa70b75fd473bce0fdae03125c557661dcddb54/lfsr_fib#6| state) #b1 #b0) (ite (|$paramod$0aa70b75fd473bce0fdae03125c557661dcddb54/lfsr_fib#2| state) #b1 #b0))) ; $xor$lfsr_fib.v:77$22_Y
(define-fun |$paramod$0aa70b75fd473bce0fdae03125c557661dcddb54/lfsr_fib#8| ((state |$paramod$0aa70b75fd473bce0fdae03125c557661dcddb54/lfsr_fib_s|)) (_ BitVec 8) (ite (|$paramod$0aa70b75fd473bce0fdae03125c557661dcddb54/lfsr_fib#4| state) (concat (|$paramod$0aa70b75fd473bce0fdae03125c557661dcddb54/lfsr_fib#7| state) ((_ extract 7 1) (|$paramod$0aa70b75fd473bce0fdae03125c557661dcddb54/lfsr_fib#0| state))) (|$paramod$0aa70b75fd473bce0fdae03125c557661dcddb54/lfsr_fib#0| state))) ; $auto$rtlil.cc:2456:Mux$55
(define-fun |$paramod$0aa70b75fd473bce0fdae03125c557661dcddb54/lfsr_fib#9| ((state |$paramod$0aa70b75fd473bce0fdae03125c557661dcddb54/lfsr_fib_s|)) (_ BitVec 8) (ite (|$paramod$0aa70b75fd473bce0fdae03125c557661dcddb54/lfsr_fib#1| state) #b10000000 (|$paramod$0aa70b75fd473bce0fdae03125c557661dcddb54/lfsr_fib#8| state))) ; $auto$rtlil.cc:2456:Mux$57
(define-fun |$paramod$0aa70b75fd473bce0fdae03125c557661dcddb54/lfsr_fib_a| ((state |$paramod$0aa70b75fd473bce0fdae03125c557661dcddb54/lfsr_fib_s|)) Bool true)
(define-fun |$paramod$0aa70b75fd473bce0fdae03125c557661dcddb54/lfsr_fib_u| ((state |$paramod$0aa70b75fd473bce0fdae03125c557661dcddb54/lfsr_fib_s|)) Bool true)
(define-fun |$paramod$0aa70b75fd473bce0fdae03125c557661dcddb54/lfsr_fib_i| ((state |$paramod$0aa70b75fd473bce0fdae03125c557661dcddb54/lfsr_fib_s|)) Bool 
  (= (|$paramod$0aa70b75fd473bce0fdae03125c557661dcddb54/lfsr_fib#0| state) #b10000000) ; sreg
)
(define-fun |$paramod$0aa70b75fd473bce0fdae03125c557661dcddb54/lfsr_fib_h| ((state |$paramod$0aa70b75fd473bce0fdae03125c557661dcddb54/lfsr_fib_s|)) Bool true)
(define-fun |$paramod$0aa70b75fd473bce0fdae03125c557661dcddb54/lfsr_fib_t| ((state |$paramod$0aa70b75fd473bce0fdae03125c557661dcddb54/lfsr_fib_s|) (next_state |$paramod$0aa70b75fd473bce0fdae03125c557661dcddb54/lfsr_fib_s|)) Bool 
  (= (|$paramod$0aa70b75fd473bce0fdae03125c557661dcddb54/lfsr_fib#9| state) (|$paramod$0aa70b75fd473bce0fdae03125c557661dcddb54/lfsr_fib#0| next_state)) ; $auto$ff.cc:262:slice$47 \sreg
) ; end of module $paramod$0aa70b75fd473bce0fdae03125c557661dcddb54/lfsr_fib
; yosys-smt2-module lfsr_equiv
(declare-sort |lfsr_equiv_s| 0)
(declare-fun |lfsr_equiv_is| (|lfsr_equiv_s|) Bool)
; yosys-smt2-cell $paramod$0aa70b75fd473bce0fdae03125c557661dcddb54/lfsr_fib fib
(declare-fun |lfsr_equiv#0| (|lfsr_equiv_s|) Bool) ; \fib_bit
(declare-fun |lfsr_equiv_h fib| (|lfsr_equiv_s|) |$paramod$0aa70b75fd473bce0fdae03125c557661dcddb54/lfsr_fib_s|)
; yosys-smt2-cell $paramod$1e8fd2014180d3b081200268dddacd58cbfd5991/lfsr_gal gal
(declare-fun |lfsr_equiv#1| (|lfsr_equiv_s|) Bool) ; \gal_bit
(declare-fun |lfsr_equiv_h gal| (|lfsr_equiv_s|) |$paramod$1e8fd2014180d3b081200268dddacd58cbfd5991/lfsr_gal_s|)
(define-fun |lfsr_equiv#2| ((state |lfsr_equiv_s|)) (_ BitVec 1) (bvxor (ite (|lfsr_equiv#0| state) #b1 #b0) (ite (|lfsr_equiv#1| state) #b1 #b0))) ; \o_bit
; yosys-smt2-output o_bit 1
; yosys-smt2-wire o_bit 1
(define-fun |lfsr_equiv_n o_bit| ((state |lfsr_equiv_s|)) Bool (= ((_ extract 0 0) (|lfsr_equiv#2| state)) #b1))
(declare-fun |lfsr_equiv#3| (|lfsr_equiv_s|) Bool) ; \i_reset
; yosys-smt2-input i_reset 1
; yosys-smt2-wire i_reset 1
(define-fun |lfsr_equiv_n i_reset| ((state |lfsr_equiv_s|)) Bool (|lfsr_equiv#3| state))
(declare-fun |lfsr_equiv#4| (|lfsr_equiv_s|) Bool) ; \i_in
; yosys-smt2-input i_in 1
; yosys-smt2-wire i_in 1
(define-fun |lfsr_equiv_n i_in| ((state |lfsr_equiv_s|)) Bool (|lfsr_equiv#4| state))
(declare-fun |lfsr_equiv#5| (|lfsr_equiv_s|) Bool) ; \i_clk
; yosys-smt2-input i_clk 1
; yosys-smt2-wire i_clk 1
; yosys-smt2-clock i_clk posedge
(define-fun |lfsr_equiv_n i_clk| ((state |lfsr_equiv_s|)) Bool (|lfsr_equiv#5| state))
(declare-fun |lfsr_equiv#6| (|lfsr_equiv_s|) Bool) ; \i_ce
; yosys-smt2-input i_ce 1
; yosys-smt2-wire i_ce 1
(define-fun |lfsr_equiv_n i_ce| ((state |lfsr_equiv_s|)) Bool (|lfsr_equiv#6| state))
; yosys-smt2-wire gal_bit 1
(define-fun |lfsr_equiv_n gal_bit| ((state |lfsr_equiv_s|)) Bool (|lfsr_equiv#1| state))
; yosys-smt2-wire fib_bit 1
(define-fun |lfsr_equiv_n fib_bit| ((state |lfsr_equiv_s|)) Bool (|lfsr_equiv#0| state))
(declare-fun |lfsr_equiv#7| (|lfsr_equiv_s|) (_ BitVec 1)) ; $formal$lfsr_equiv.v:75$2_EN
; yosys-smt2-register $formal$lfsr_equiv.v:75$2_EN 1
(define-fun |lfsr_equiv_n $formal$lfsr_equiv.v:75$2_EN| ((state |lfsr_equiv_s|)) Bool (= ((_ extract 0 0) (|lfsr_equiv#7| state)) #b1))
(declare-fun |lfsr_equiv#8| (|lfsr_equiv_s|) (_ BitVec 1)) ; $formal$lfsr_equiv.v:75$2_CHECK
; yosys-smt2-register $formal$lfsr_equiv.v:75$2_CHECK 1
(define-fun |lfsr_equiv_n $formal$lfsr_equiv.v:75$2_CHECK| ((state |lfsr_equiv_s|)) Bool (= ((_ extract 0 0) (|lfsr_equiv#8| state)) #b1))
; yosys-smt2-assert 0 $assert$lfsr_equiv.v:75$13 lfsr_equiv.v:75.28-76.33
(define-fun |lfsr_equiv_a 0| ((state |lfsr_equiv_s|)) Bool (or (= ((_ extract 0 0) (|lfsr_equiv#8| state)) #b1) (not (= ((_ extract 0 0) (|lfsr_equiv#7| state)) #b1)))) ; $assert$lfsr_equiv.v:75$13
(define-fun |lfsr_equiv#9| ((state |lfsr_equiv_s|)) Bool (not (or  (= ((_ extract 0 0) (|lfsr_equiv#2| state)) #b1) false))) ; $0$formal$lfsr_equiv.v:73$1_CHECK[0:0]$5
; yosys-smt2-assert 1 $assert$lfsr_equiv.v:73$12 lfsr_equiv.v:73.13-74.17
(define-fun |lfsr_equiv_a 1| ((state |lfsr_equiv_s|)) Bool (or (|lfsr_equiv#9| state) (not true))) ; $assert$lfsr_equiv.v:73$12
(define-fun |lfsr_equiv#10| ((state |lfsr_equiv_s|)) Bool (= (ite (|lfsr_equiv#0| state) #b1 #b0) (ite (|lfsr_equiv#1| state) #b1 #b0))) ; $0$formal$lfsr_equiv.v:75$2_CHECK[0:0]$9
(define-fun |lfsr_equiv_a| ((state |lfsr_equiv_s|)) Bool (and
  (|lfsr_equiv_a 0| state)
  (|lfsr_equiv_a 1| state)
  (|$paramod$0aa70b75fd473bce0fdae03125c557661dcddb54/lfsr_fib_a| (|lfsr_equiv_h fib| state))
  (|$paramod$1e8fd2014180d3b081200268dddacd58cbfd5991/lfsr_gal_a| (|lfsr_equiv_h gal| state))
))
(define-fun |lfsr_equiv_u| ((state |lfsr_equiv_s|)) Bool (and
  (|$paramod$0aa70b75fd473bce0fdae03125c557661dcddb54/lfsr_fib_u| (|lfsr_equiv_h fib| state))
  (|$paramod$1e8fd2014180d3b081200268dddacd58cbfd5991/lfsr_gal_u| (|lfsr_equiv_h gal| state))
))
(define-fun |lfsr_equiv_i| ((state |lfsr_equiv_s|)) Bool (and
  (= (= ((_ extract 0 0) (|lfsr_equiv#7| state)) #b1) false) ; $formal$lfsr_equiv.v:75$2_EN
  (|$paramod$0aa70b75fd473bce0fdae03125c557661dcddb54/lfsr_fib_i| (|lfsr_equiv_h fib| state))
  (|$paramod$1e8fd2014180d3b081200268dddacd58cbfd5991/lfsr_gal_i| (|lfsr_equiv_h gal| state))
))
(define-fun |lfsr_equiv_h| ((state |lfsr_equiv_s|)) Bool (and
  (= (|lfsr_equiv_is| state) (|$paramod$0aa70b75fd473bce0fdae03125c557661dcddb54/lfsr_fib_is| (|lfsr_equiv_h fib| state)))
  (= (|lfsr_equiv#0| state) (|$paramod$0aa70b75fd473bce0fdae03125c557661dcddb54/lfsr_fib_n o_bit| (|lfsr_equiv_h fib| state))) ; $paramod$0aa70b75fd473bce0fdae03125c557661dcddb54/lfsr_fib.o_bit
  (= (|lfsr_equiv#3| state) (|$paramod$0aa70b75fd473bce0fdae03125c557661dcddb54/lfsr_fib_n i_reset| (|lfsr_equiv_h fib| state))) ; $paramod$0aa70b75fd473bce0fdae03125c557661dcddb54/lfsr_fib.i_reset
  (= (|lfsr_equiv#4| state) (|$paramod$0aa70b75fd473bce0fdae03125c557661dcddb54/lfsr_fib_n i_in| (|lfsr_equiv_h fib| state))) ; $paramod$0aa70b75fd473bce0fdae03125c557661dcddb54/lfsr_fib.i_in
  (= (|lfsr_equiv#5| state) (|$paramod$0aa70b75fd473bce0fdae03125c557661dcddb54/lfsr_fib_n i_clk| (|lfsr_equiv_h fib| state))) ; $paramod$0aa70b75fd473bce0fdae03125c557661dcddb54/lfsr_fib.i_clk
  (= (|lfsr_equiv#6| state) (|$paramod$0aa70b75fd473bce0fdae03125c557661dcddb54/lfsr_fib_n i_ce| (|lfsr_equiv_h fib| state))) ; $paramod$0aa70b75fd473bce0fdae03125c557661dcddb54/lfsr_fib.i_ce
  (= (|lfsr_equiv_is| state) (|$paramod$1e8fd2014180d3b081200268dddacd58cbfd5991/lfsr_gal_is| (|lfsr_equiv_h gal| state)))
  (= (|lfsr_equiv#1| state) (|$paramod$1e8fd2014180d3b081200268dddacd58cbfd5991/lfsr_gal_n o_bit| (|lfsr_equiv_h gal| state))) ; $paramod$1e8fd2014180d3b081200268dddacd58cbfd5991/lfsr_gal.o_bit
  (= (|lfsr_equiv#3| state) (|$paramod$1e8fd2014180d3b081200268dddacd58cbfd5991/lfsr_gal_n i_reset| (|lfsr_equiv_h gal| state))) ; $paramod$1e8fd2014180d3b081200268dddacd58cbfd5991/lfsr_gal.i_reset
  (= (|lfsr_equiv#4| state) (|$paramod$1e8fd2014180d3b081200268dddacd58cbfd5991/lfsr_gal_n i_in| (|lfsr_equiv_h gal| state))) ; $paramod$1e8fd2014180d3b081200268dddacd58cbfd5991/lfsr_gal.i_in
  (= (|lfsr_equiv#5| state) (|$paramod$1e8fd2014180d3b081200268dddacd58cbfd5991/lfsr_gal_n i_clk| (|lfsr_equiv_h gal| state))) ; $paramod$1e8fd2014180d3b081200268dddacd58cbfd5991/lfsr_gal.i_clk
  (= (|lfsr_equiv#6| state) (|$paramod$1e8fd2014180d3b081200268dddacd58cbfd5991/lfsr_gal_n i_ce| (|lfsr_equiv_h gal| state))) ; $paramod$1e8fd2014180d3b081200268dddacd58cbfd5991/lfsr_gal.i_ce
  (|$paramod$0aa70b75fd473bce0fdae03125c557661dcddb54/lfsr_fib_h| (|lfsr_equiv_h fib| state))
  (|$paramod$1e8fd2014180d3b081200268dddacd58cbfd5991/lfsr_gal_h| (|lfsr_equiv_h gal| state))
))
(define-fun |lfsr_equiv_t| ((state |lfsr_equiv_s|) (next_state |lfsr_equiv_s|)) Bool (and
  (= (ite (|lfsr_equiv#10| state) #b1 #b0) (|lfsr_equiv#8| next_state)) ; $procdff$44 $formal$lfsr_equiv.v:75$2_CHECK
  (= #b1 (|lfsr_equiv#7| next_state)) ; $procdff$45 $formal$lfsr_equiv.v:75$2_EN
  (|$paramod$0aa70b75fd473bce0fdae03125c557661dcddb54/lfsr_fib_t| (|lfsr_equiv_h fib| state) (|lfsr_equiv_h fib| next_state))
  (|$paramod$1e8fd2014180d3b081200268dddacd58cbfd5991/lfsr_gal_t| (|lfsr_equiv_h gal| state) (|lfsr_equiv_h gal| next_state))
)) ; end of module lfsr_equiv
; yosys-smt2-topmod lfsr_equiv
; end of yosys output
